(set-logic QF_NRA)
(set-info :source |Benchmarks generated from hycomp (https://es-static.fbk.eu/tools/hycomp/). BMC instances of non-linear hybrid automata taken from: Alessandro Cimatti, Sergio Mover, Stefano Tonetta, A quantifier-free SMT encoding of non-linear hybrid automata, FMCAD 2012 and Alessandro Cimatti, Sergio Mover, Stefano Tonetta, Quantier-free encoding of invariants for Hybrid Systems, Formal Methods in System Design. This instance solves a BMC problem of depth 1 and uses the quantifier free encoding with equivalences encoding. Contacts: Sergio Mover (mover@fbk.eu), Stefano Tonetta (tonettas@fbk.eu), Alessandro Cimatti (cimatti@fbk.eu).|)
(set-info :smt-lib-version 2.0)
(set-info :category "industrial")
(set-info :status unsat)
;; MathSAT API call trace
;; generated on Mon Mar 19 10:48:47 2012
(declare-fun b.counter.3__AT1 () Bool)
(declare-fun b.delta__AT1 () Real)
(declare-fun b.EVENT.0__AT1 () Bool)
(declare-fun b.x__AT1 () Real)
(declare-fun b.EVENT.1__AT1 () Bool)
(declare-fun b.event_is_timed__AT0 () Bool)
(declare-fun b.y__AT0 () Real)
(declare-fun b.counter.0__AT0 () Bool)
(declare-fun b.counter.1__AT0 () Bool)
(declare-fun b.EVENT.0__AT0 () Bool)
(declare-fun b.bool_atom__AT0 () Bool)
(declare-fun b.counter.2__AT0 () Bool)
(declare-fun b.speed_y__AT1 () Real)
(declare-fun b.event_is_timed__AT1 () Bool)
(declare-fun b.x__AT0 () Real)
(declare-fun b.time__AT1 () Real)
(declare-fun b.bool_atom__AT1 () Bool)
(declare-fun b.g__AT0 () Real)
(declare-fun b.EVENT.1__AT0 () Bool)
(declare-fun b.time__AT0 () Real)
(declare-fun b.delta__AT0 () Real)
(declare-fun b.counter.3__AT0 () Bool)
(declare-fun b.speed_y__AT0 () Real)
(declare-fun b.y__AT1 () Real)
(declare-fun b.counter.0__AT1 () Bool)
(declare-fun b.counter.1__AT1 () Bool)
(declare-fun b.counter.2__AT1 () Bool)
(assert (let ((.def_68 (* (- 1.0) b.g__AT0)))
(let ((.def_71 (* (/ 1 2) .def_68)))
(let ((.def_84 (* 2.0 .def_71)))
(let ((.def_259 (* .def_84 b.delta__AT1)))
(let ((.def_260 (+ b.speed_y__AT1 .def_259)))
(let ((.def_264 (<= .def_260 0.0 )))
(let ((.def_263 (<= b.speed_y__AT1 0.0 )))
(let ((.def_265 (and .def_263 .def_264)))
(let ((.def_261 (<= 0.0 .def_260)))
(let ((.def_258 (<= 0.0 b.speed_y__AT1)))
(let ((.def_262 (and .def_258 .def_261)))
(let ((.def_266 (or .def_262 .def_265)))
(let ((.def_249 (* b.speed_y__AT1 b.delta__AT1)))
(let ((.def_247 (* b.delta__AT1 b.delta__AT1)))
(let ((.def_248 (* .def_71 .def_247)))
(let ((.def_250 (+ .def_248 .def_249)))
(let ((.def_238 (* (- 1.0) b.x__AT1)))
(let ((.def_239 (* b.x__AT1 .def_238)))
(let ((.def_251 (* (- 1.0) .def_239)))
(let ((.def_254 (+ .def_251 .def_250)))
(let ((.def_255 (+ b.y__AT1 .def_254)))
(let ((.def_256 (<= 0.0 .def_255)))
(let ((.def_240 (<= .def_239 b.y__AT1)))
(let ((.def_257 (and .def_240 .def_256)))
(let ((.def_267 (and .def_257 .def_266)))
(let ((.def_60 (<= b.g__AT0 10.0 )))
(let ((.def_59 (<= 8.0 b.g__AT0)))
(let ((.def_61 (and .def_59 .def_60)))
(let ((.def_268 (and .def_61 .def_267)))
(let ((.def_241 (and .def_61 .def_240)))
(let ((.def_235 (not b.EVENT.0__AT1)))
(let ((.def_233 (not b.EVENT.1__AT1)))
(let ((.def_236 (or .def_233 .def_235)))
(let ((.def_6 (not b.counter.0__AT1)))
(let ((.def_4 (not b.counter.1__AT1)))
(let ((.def_226 (or .def_4 .def_6)))
(let ((.def_230 (or b.counter.3__AT1 .def_226)))
(let ((.def_227 (or b.counter.2__AT1 .def_226)))
(let ((.def_9 (not b.counter.2__AT1)))
(let ((.def_225 (or .def_6 .def_9)))
(let ((.def_228 (and .def_225 .def_227)))
(let ((.def_12 (not b.counter.3__AT1)))
(let ((.def_229 (or .def_12 .def_228)))
(let ((.def_231 (and .def_229 .def_230)))
(let ((.def_237 (and .def_231 .def_236)))
(let ((.def_242 (and .def_237 .def_241)))
(let ((.def_220 (<= 0.0 b.delta__AT0)))
(let ((.def_49 (not b.EVENT.0__AT0)))
(let ((.def_47 (not b.EVENT.1__AT0)))
(let ((.def_96 (and .def_47 .def_49)))
(let ((.def_98 (not .def_96)))
(let ((.def_221 (or .def_98 .def_220)))
(let ((.def_222 (or b.EVENT.1__AT0 .def_221)))
(let ((.def_134 (= b.bool_atom__AT0 b.bool_atom__AT1)))
(let ((.def_129 (= b.counter.0__AT1 b.counter.0__AT0)))
(let ((.def_127 (= b.counter.1__AT1 b.counter.1__AT0)))
(let ((.def_125 (= b.counter.2__AT1 b.counter.2__AT0)))
(let ((.def_124 (= b.counter.3__AT1 b.counter.3__AT0)))
(let ((.def_126 (and .def_124 .def_125)))
(let ((.def_128 (and .def_126 .def_127)))
(let ((.def_130 (and .def_128 .def_129)))
(let ((.def_216 (and .def_130 .def_134)))
(let ((.def_217 (or .def_98 .def_216)))
(let ((.def_218 (or b.EVENT.1__AT0 .def_217)))
(let ((.def_205 (* b.delta__AT0 .def_68)))
(let ((.def_206 (* (- 1.0) b.speed_y__AT1)))
(let ((.def_209 (+ .def_206 .def_205)))
(let ((.def_210 (+ b.speed_y__AT0 .def_209)))
(let ((.def_211 (= .def_210 0.0 )))
(let ((.def_197 (* (- 1.0) b.y__AT1)))
(let ((.def_74 (* b.delta__AT0 b.speed_y__AT0)))
(let ((.def_200 (+ .def_74 .def_197)))
(let ((.def_67 (* b.delta__AT0 b.delta__AT0)))
(let ((.def_72 (* .def_67 .def_71)))
(let ((.def_201 (+ .def_72 .def_200)))
(let ((.def_202 (+ b.y__AT0 .def_201)))
(let ((.def_203 (= .def_202 0.0 )))
(let ((.def_116 (= b.x__AT0 b.x__AT1)))
(let ((.def_204 (and .def_116 .def_203)))
(let ((.def_212 (and .def_204 .def_211)))
(let ((.def_213 (or .def_98 .def_212)))
(let ((.def_119 (= b.y__AT0 b.y__AT1)))
(let ((.def_192 (and .def_116 .def_119)))
(let ((.def_122 (= b.speed_y__AT0 b.speed_y__AT1)))
(let ((.def_193 (and .def_122 .def_192)))
(let ((.def_189 (= b.delta__AT0 0.0 )))
(let ((.def_190 (and .def_96 .def_189)))
(let ((.def_191 (not .def_190)))
(let ((.def_194 (or .def_191 .def_193)))
(let ((.def_195 (or b.EVENT.1__AT0 .def_194)))
(let ((.def_182 (and .def_122 .def_130)))
(let ((.def_183 (or b.bool_atom__AT0 .def_182)))
(let ((.def_158 (or .def_6 b.counter.0__AT0)))
(let ((.def_30 (not b.counter.0__AT0)))
(let ((.def_157 (or b.counter.0__AT1 .def_30)))
(let ((.def_159 (and .def_157 .def_158)))
(let ((.def_160 (and .def_4 .def_159)))
(let ((.def_161 (or b.counter.1__AT0 .def_160)))
(let ((.def_28 (not b.counter.1__AT0)))
(let ((.def_156 (or b.counter.1__AT1 .def_28)))
(let ((.def_162 (and .def_156 .def_161)))
(let ((.def_173 (and .def_9 .def_162)))
(let ((.def_174 (or b.counter.2__AT0 .def_173)))
(let ((.def_168 (and .def_4 .def_30)))
(let ((.def_169 (or b.counter.1__AT0 .def_168)))
(let ((.def_170 (and .def_156 .def_169)))
(let ((.def_171 (and b.counter.2__AT1 .def_170)))
(let ((.def_33 (not b.counter.2__AT0)))
(let ((.def_172 (or .def_33 .def_171)))
(let ((.def_175 (and .def_172 .def_174)))
(let ((.def_176 (and b.counter.3__AT1 .def_175)))
(let ((.def_177 (or b.counter.3__AT0 .def_176)))
(let ((.def_163 (and b.counter.2__AT1 .def_162)))
(let ((.def_164 (or b.counter.2__AT0 .def_163)))
(let ((.def_152 (or b.counter.1__AT1 b.counter.1__AT0)))
(let ((.def_150 (and .def_4 b.counter.0__AT1)))
(let ((.def_151 (or .def_28 .def_150)))
(let ((.def_153 (and .def_151 .def_152)))
(let ((.def_154 (and .def_9 .def_153)))
(let ((.def_155 (or .def_33 .def_154)))
(let ((.def_165 (and .def_155 .def_164)))
(let ((.def_166 (and .def_12 .def_165)))
(let ((.def_36 (not b.counter.3__AT0)))
(let ((.def_167 (or .def_36 .def_166)))
(let ((.def_178 (and .def_167 .def_177)))
(let ((.def_147 (* b.speed_y__AT0 b.speed_y__AT0)))
(let ((.def_146 (* b.speed_y__AT1 b.speed_y__AT1)))
(let ((.def_148 (= .def_146 .def_147)))
(let ((.def_144 (+ b.speed_y__AT0 b.speed_y__AT1)))
(let ((.def_145 (= .def_144 0.0 )))
(let ((.def_149 (and .def_145 .def_148)))
(let ((.def_179 (and .def_149 .def_178)))
(let ((.def_143 (not b.bool_atom__AT0)))
(let ((.def_180 (or .def_143 .def_179)))
(let ((.def_83 (<= 0.0 b.speed_y__AT0)))
(let ((.def_140 (not .def_83)))
(let ((.def_54 (* (- 1.0) b.x__AT0)))
(let ((.def_55 (* b.x__AT0 .def_54)))
(let ((.def_139 (= b.y__AT0 .def_55)))
(let ((.def_141 (and .def_139 .def_140)))
(let ((.def_142 (= b.bool_atom__AT0 .def_141)))
(let ((.def_181 (and .def_142 .def_180)))
(let ((.def_184 (and .def_181 .def_183)))
(let ((.def_185 (and .def_116 .def_184)))
(let ((.def_186 (and .def_119 .def_185)))
(let ((.def_187 (or .def_96 .def_186)))
(let ((.def_188 (or b.EVENT.1__AT0 .def_187)))
(let ((.def_196 (and .def_188 .def_195)))
(let ((.def_214 (and .def_196 .def_213)))
(let ((.def_103 (= b.time__AT0 b.time__AT1)))
(let ((.def_117 (and .def_103 .def_116)))
(let ((.def_120 (and .def_117 .def_119)))
(let ((.def_123 (and .def_120 .def_122)))
(let ((.def_131 (and .def_123 .def_130)))
(let ((.def_135 (and .def_131 .def_134)))
(let ((.def_136 (or .def_47 .def_135)))
(let ((.def_106 (* (- 1.0) b.time__AT1)))
(let ((.def_109 (+ b.delta__AT0 .def_106)))
(let ((.def_110 (+ b.time__AT0 .def_109)))
(let ((.def_111 (= .def_110 0.0 )))
(let ((.def_112 (or .def_98 .def_111)))
(let ((.def_113 (or b.EVENT.1__AT0 .def_112)))
(let ((.def_104 (or .def_96 .def_103)))
(let ((.def_105 (or b.EVENT.1__AT0 .def_104)))
(let ((.def_114 (and .def_105 .def_113)))
(let ((.def_137 (and .def_114 .def_136)))
(let ((.def_100 (= .def_98 b.event_is_timed__AT1)))
(let ((.def_97 (= b.event_is_timed__AT0 .def_96)))
(let ((.def_101 (and .def_97 .def_100)))
(let ((.def_138 (and .def_101 .def_137)))
(let ((.def_215 (and .def_138 .def_214)))
(let ((.def_219 (and .def_215 .def_218)))
(let ((.def_223 (and .def_219 .def_222)))
(let ((.def_224 (and .def_47 .def_223)))
(let ((.def_243 (and .def_224 .def_242)))
(let ((.def_31 (and .def_28 .def_30)))
(let ((.def_34 (and .def_31 .def_33)))
(let ((.def_37 (and .def_34 .def_36)))
(let ((.def_244 (and .def_37 .def_243)))
(let ((.def_85 (* b.delta__AT0 .def_84)))
(let ((.def_86 (+ b.speed_y__AT0 .def_85)))
(let ((.def_90 (<= .def_86 0.0 )))
(let ((.def_89 (<= b.speed_y__AT0 0.0 )))
(let ((.def_91 (and .def_89 .def_90)))
(let ((.def_87 (<= 0.0 .def_86)))
(let ((.def_88 (and .def_83 .def_87)))
(let ((.def_92 (or .def_88 .def_91)))
(let ((.def_75 (+ .def_72 .def_74)))
(let ((.def_76 (* (- 1.0) .def_55)))
(let ((.def_79 (+ .def_76 .def_75)))
(let ((.def_80 (+ b.y__AT0 .def_79)))
(let ((.def_81 (<= 0.0 .def_80)))
(let ((.def_56 (<= .def_55 b.y__AT0)))
(let ((.def_82 (and .def_56 .def_81)))
(let ((.def_93 (and .def_82 .def_92)))
(let ((.def_94 (and .def_61 .def_93)))
(let ((.def_62 (and .def_56 .def_61)))
(let ((.def_50 (or .def_47 .def_49)))
(let ((.def_40 (or .def_28 .def_30)))
(let ((.def_44 (or b.counter.3__AT0 .def_40)))
(let ((.def_41 (or b.counter.2__AT0 .def_40)))
(let ((.def_39 (or .def_30 .def_33)))
(let ((.def_42 (and .def_39 .def_41)))
(let ((.def_43 (or .def_36 .def_42)))
(let ((.def_45 (and .def_43 .def_44)))
(let ((.def_51 (and .def_45 .def_50)))
(let ((.def_63 (and .def_51 .def_62)))
(let ((.def_25 (= b.y__AT0 10.0 )))
(let ((.def_21 (= b.x__AT0 0.0 )))
(let ((.def_17 (= b.time__AT0 0.0 )))
(let ((.def_19 (and .def_17 b.event_is_timed__AT0)))
(let ((.def_22 (and .def_19 .def_21)))
(let ((.def_26 (and .def_22 .def_25)))
(let ((.def_38 (and .def_26 .def_37)))
(let ((.def_64 (and .def_38 .def_63)))
(let ((.def_7 (and .def_4 .def_6)))
(let ((.def_10 (and .def_7 .def_9)))
(let ((.def_13 (and .def_10 .def_12)))
(let ((.def_14 (not .def_13)))
(let ((.def_65 (and .def_14 .def_64)))
(let ((.def_95 (and .def_65 .def_94)))
(let ((.def_245 (and .def_95 .def_244)))
(let ((.def_269 (and .def_245 .def_268)))
.def_269))))))))))))))))))))))))))))))))))))))))))))))))))))))))))))))))))))))))))))))))))))))))))))))))))))))))))))))))))))))))))))))))))))))))))))))))))))))))))))))))))))))))))))))))))))))))))))))))))))))))))))))))))))))))))))))))
(check-sat)
(exit)
